c File: data_files/evolved_graphs/g0151.col
c
c Auto generated graph
c
p edge 100 1914
e 1 16
e 1 18
e 1 19
e 1 20
e 1 21
e 1 22
e 1 34
e 1 35
e 1 36
e 1 39
e 1 40
e 1 41
e 1 42
e 1 43
e 1 44
e 1 45
e 1 46
e 1 47
e 1 48
e 1 49
e 1 50
e 1 51
e 1 52
e 1 53
e 1 54
e 1 56
e 1 57
e 1 58
e 1 59
e 1 61
e 1 62
e 1 63
e 1 64
e 1 75
e 1 77
e 1 81
e 1 91
e 1 93
e 1 94
e 1 96
e 1 100
e 2 13
e 2 16
e 2 17
e 2 18
e 2 19
e 2 20
e 2 21
e 2 22
e 2 35
e 2 36
e 2 37
e 2 38
e 2 39
e 2 40
e 2 41
e 2 42
e 2 43
e 2 44
e 2 45
e 2 46
e 2 48
e 2 51
e 2 52
e 2 53
e 2 56
e 2 57
e 2 58
e 2 59
e 2 60
e 2 61
e 2 62
e 2 63
e 2 64
e 2 70
e 2 74
e 2 91
e 2 92
e 2 93
e 2 94
e 2 95
e 2 96
e 2 97
e 2 100
e 3 13
e 3 14
e 3 15
e 3 16
e 3 17
e 3 18
e 3 19
e 3 20
e 3 21
e 3 34
e 3 35
e 3 36
e 3 37
e 3 38
e 3 39
e 3 40
e 3 41
e 3 42
e 3 43
e 3 44
e 3 45
e 3 46
e 3 47
e 3 48
e 3 49
e 3 50
e 3 51
e 3 52
e 3 53
e 3 54
e 3 55
e 3 56
e 3 57
e 3 58
e 3 59
e 3 60
e 3 61
e 3 62
e 3 64
e 3 66
e 3 76
e 3 80
e 3 83
e 3 91
e 3 92
e 3 94
e 3 95
e 4 7
e 4 8
e 4 9
e 4 10
e 4 11
e 4 12
e 4 13
e 4 14
e 4 21
e 4 22
e 4 23
e 4 24
e 4 26
e 4 27
e 4 28
e 4 29
e 4 30
e 4 31
e 4 32
e 4 33
e 4 34
e 4 35
e 4 36
e 4 37
e 4 38
e 4 39
e 4 40
e 4 41
e 4 42
e 4 43
e 4 44
e 4 45
e 4 46
e 4 48
e 4 49
e 4 50
e 4 51
e 4 52
e 4 53
e 4 54
e 4 67
e 4 69
e 4 74
e 4 79
e 4 82
e 4 83
e 4 85
e 4 89
e 4 96
e 5 13
e 5 14
e 5 15
e 5 16
e 5 17
e 5 18
e 5 19
e 5 20
e 5 21
e 5 22
e 5 28
e 5 34
e 5 35
e 5 36
e 5 37
e 5 38
e 5 40
e 5 41
e 5 42
e 5 43
e 5 44
e 5 45
e 5 46
e 5 47
e 5 48
e 5 49
e 5 50
e 5 51
e 5 52
e 5 55
e 5 67
e 5 72
e 5 75
e 5 77
e 5 78
e 5 79
e 5 85
e 5 86
e 5 90
e 6 13
e 6 14
e 6 15
e 6 17
e 6 18
e 6 19
e 6 20
e 6 21
e 6 22
e 6 34
e 6 35
e 6 36
e 6 37
e 6 38
e 6 39
e 6 40
e 6 41
e 6 42
e 6 44
e 6 45
e 6 46
e 6 47
e 6 48
e 6 49
e 6 50
e 6 51
e 6 52
e 6 53
e 6 55
e 6 63
e 6 64
e 6 65
e 6 66
e 6 67
e 6 75
e 6 79
e 6 82
e 6 84
e 6 87
e 6 90
e 6 91
e 7 13
e 7 14
e 7 15
e 7 16
e 7 17
e 7 18
e 7 19
e 7 20
e 7 21
e 7 22
e 7 34
e 7 36
e 7 37
e 7 38
e 7 39
e 7 40
e 7 41
e 7 42
e 7 45
e 7 46
e 7 47
e 7 48
e 7 49
e 7 50
e 7 52
e 7 53
e 7 54
e 7 55
e 7 63
e 7 64
e 7 65
e 7 66
e 7 67
e 7 72
e 7 73
e 7 76
e 7 78
e 7 81
e 7 90
e 7 93
e 7 97
e 8 13
e 8 14
e 8 15
e 8 16
e 8 17
e 8 18
e 8 19
e 8 20
e 8 22
e 8 27
e 8 35
e 8 36
e 8 37
e 8 38
e 8 39
e 8 40
e 8 41
e 8 42
e 8 43
e 8 44
e 8 45
e 8 46
e 8 47
e 8 48
e 8 49
e 8 50
e 8 51
e 8 52
e 8 53
e 8 54
e 8 55
e 8 63
e 8 65
e 8 66
e 8 67
e 8 72
e 8 74
e 8 75
e 8 76
e 8 77
e 8 78
e 8 79
e 8 81
e 8 86
e 8 89
e 8 91
e 8 98
e 9 13
e 9 14
e 9 15
e 9 16
e 9 17
e 9 18
e 9 19
e 9 20
e 9 21
e 9 22
e 9 35
e 9 36
e 9 37
e 9 38
e 9 39
e 9 40
e 9 41
e 9 42
e 9 43
e 9 44
e 9 47
e 9 48
e 9 49
e 9 50
e 9 51
e 9 52
e 9 53
e 9 55
e 9 63
e 9 64
e 9 65
e 9 66
e 9 69
e 9 78
e 9 81
e 9 83
e 9 86
e 9 89
e 10 13
e 10 14
e 10 15
e 10 16
e 10 17
e 10 18
e 10 19
e 10 20
e 10 21
e 10 22
e 10 36
e 10 37
e 10 39
e 10 40
e 10 41
e 10 52
e 10 53
e 10 54
e 10 55
e 10 56
e 10 57
e 10 58
e 10 59
e 10 60
e 10 61
e 10 62
e 10 63
e 10 64
e 10 65
e 10 66
e 10 67
e 10 80
e 10 84
e 10 90
e 10 92
e 11 13
e 11 14
e 11 15
e 11 16
e 11 17
e 11 18
e 11 19
e 11 20
e 11 21
e 11 22
e 11 35
e 11 36
e 11 37
e 11 38
e 11 39
e 11 40
e 11 41
e 11 52
e 11 53
e 11 54
e 11 55
e 11 56
e 11 57
e 11 58
e 11 59
e 11 60
e 11 61
e 11 62
e 11 63
e 11 64
e 11 65
e 11 66
e 11 89
e 11 90
e 12 13
e 12 14
e 12 15
e 12 16
e 12 17
e 12 18
e 12 19
e 12 20
e 12 21
e 12 22
e 12 35
e 12 36
e 12 37
e 12 38
e 12 40
e 12 41
e 12 52
e 12 53
e 12 54
e 12 55
e 12 56
e 12 57
e 12 58
e 12 59
e 12 60
e 12 61
e 12 62
e 12 63
e 12 64
e 12 65
e 12 66
e 12 68
e 12 85
e 12 90
e 13 23
e 13 24
e 13 25
e 13 26
e 13 28
e 13 29
e 13 30
e 13 31
e 13 52
e 13 53
e 13 54
e 13 55
e 13 56
e 13 57
e 13 58
e 13 59
e 13 60
e 13 61
e 13 63
e 13 64
e 13 65
e 13 66
e 13 73
e 13 76
e 13 83
e 13 86
e 13 88
e 14 23
e 14 24
e 14 25
e 14 26
e 14 27
e 14 28
e 14 29
e 14 30
e 14 31
e 14 33
e 14 34
e 14 35
e 14 36
e 14 37
e 14 38
e 14 40
e 14 41
e 14 52
e 14 53
e 14 54
e 14 55
e 14 56
e 14 57
e 14 58
e 14 59
e 14 60
e 14 61
e 14 62
e 14 63
e 14 64
e 14 65
e 14 66
e 14 67
e 14 84
e 14 93
e 14 97
e 14 99
e 15 23
e 15 24
e 15 25
e 15 26
e 15 27
e 15 28
e 15 29
e 15 30
e 15 31
e 15 34
e 15 35
e 15 36
e 15 37
e 15 38
e 15 40
e 15 41
e 15 42
e 15 46
e 15 47
e 15 48
e 15 49
e 15 50
e 15 51
e 15 52
e 15 53
e 15 54
e 15 56
e 15 57
e 15 58
e 15 59
e 15 60
e 15 61
e 15 62
e 15 63
e 15 64
e 15 65
e 15 66
e 15 81
e 15 86
e 15 87
e 15 96
e 15 97
e 15 98
e 15 99
e 15 100
e 16 23
e 16 24
e 16 25
e 16 26
e 16 27
e 16 28
e 16 29
e 16 30
e 16 31
e 16 35
e 16 36
e 16 37
e 16 38
e 16 39
e 16 40
e 16 41
e 16 43
e 16 46
e 16 47
e 16 48
e 16 49
e 16 50
e 16 51
e 16 52
e 16 53
e 16 54
e 16 55
e 16 56
e 16 57
e 16 58
e 16 59
e 16 60
e 16 61
e 16 62
e 16 63
e 16 64
e 16 65
e 16 66
e 16 86
e 16 93
e 16 96
e 16 97
e 16 98
e 16 99
e 16 100
e 17 24
e 17 25
e 17 26
e 17 28
e 17 30
e 17 34
e 17 35
e 17 36
e 17 37
e 17 38
e 17 39
e 17 40
e 17 41
e 17 45
e 17 46
e 17 47
e 17 48
e 17 49
e 17 50
e 17 52
e 17 53
e 17 54
e 17 55
e 17 56
e 17 57
e 17 58
e 17 59
e 17 60
e 17 61
e 17 62
e 17 63
e 17 64
e 17 65
e 17 66
e 17 67
e 17 69
e 17 70
e 17 76
e 17 89
e 17 93
e 17 96
e 17 97
e 17 98
e 17 99
e 17 100
e 18 34
e 18 35
e 18 36
e 18 37
e 18 38
e 18 39
e 18 40
e 18 41
e 18 42
e 18 46
e 18 47
e 18 48
e 18 49
e 18 50
e 18 51
e 18 52
e 18 53
e 18 54
e 18 55
e 18 56
e 18 57
e 18 58
e 18 59
e 18 60
e 18 62
e 18 63
e 18 64
e 18 65
e 18 66
e 18 74
e 18 83
e 18 88
e 18 92
e 18 96
e 18 97
e 18 98
e 18 99
e 18 100
e 19 34
e 19 35
e 19 36
e 19 37
e 19 38
e 19 39
e 19 40
e 19 41
e 19 42
e 19 43
e 19 44
e 19 46
e 19 47
e 19 48
e 19 49
e 19 50
e 19 51
e 19 52
e 19 53
e 19 54
e 19 55
e 19 56
e 19 57
e 19 58
e 19 59
e 19 60
e 19 61
e 19 62
e 19 63
e 19 64
e 19 65
e 19 66
e 19 67
e 19 76
e 19 80
e 19 82
e 19 84
e 19 91
e 19 93
e 19 96
e 19 97
e 19 98
e 19 99
e 19 100
e 20 46
e 20 47
e 20 48
e 20 49
e 20 50
e 20 51
e 20 52
e 20 53
e 20 54
e 20 56
e 20 57
e 20 58
e 20 59
e 20 60
e 20 61
e 20 62
e 20 63
e 20 64
e 20 65
e 20 68
e 20 78
e 20 95
e 21 46
e 21 47
e 21 48
e 21 49
e 21 50
e 21 51
e 21 52
e 21 53
e 21 54
e 21 55
e 21 56
e 21 57
e 21 59
e 21 60
e 21 61
e 21 62
e 21 63
e 21 64
e 21 65
e 21 66
e 21 69
e 21 74
e 21 75
e 21 78
e 21 95
e 22 45
e 22 46
e 22 47
e 22 48
e 22 49
e 22 50
e 22 51
e 22 52
e 22 53
e 22 54
e 22 55
e 22 56
e 22 57
e 22 58
e 22 59
e 22 60
e 22 61
e 22 62
e 22 63
e 22 64
e 22 65
e 22 66
e 22 69
e 22 71
e 22 72
e 22 79
e 22 80
e 22 98
e 23 34
e 23 35
e 23 36
e 23 37
e 23 38
e 23 39
e 23 40
e 23 41
e 23 42
e 23 44
e 23 45
e 23 46
e 23 47
e 23 48
e 23 49
e 23 50
e 23 51
e 23 52
e 23 53
e 23 54
e 23 55
e 23 56
e 23 57
e 23 58
e 23 59
e 23 60
e 23 61
e 23 62
e 23 63
e 23 65
e 23 66
e 23 67
e 23 68
e 23 69
e 23 70
e 23 71
e 23 72
e 23 73
e 23 74
e 23 75
e 23 76
e 23 77
e 23 78
e 23 79
e 23 80
e 23 81
e 23 83
e 23 84
e 23 85
e 23 86
e 23 95
e 24 34
e 24 35
e 24 36
e 24 37
e 24 38
e 24 39
e 24 40
e 24 41
e 24 42
e 24 43
e 24 44
e 24 45
e 24 46
e 24 47
e 24 48
e 24 49
e 24 50
e 24 51
e 24 53
e 24 68
e 24 74
e 24 95
e 25 34
e 25 35
e 25 36
e 25 37
e 25 38
e 25 39
e 25 40
e 25 41
e 25 43
e 25 44
e 25 45
e 25 46
e 25 47
e 25 48
e 25 49
e 25 50
e 25 51
e 25 59
e 25 91
e 25 93
e 25 96
e 26 34
e 26 35
e 26 36
e 26 37
e 26 38
e 26 39
e 26 40
e 26 41
e 26 42
e 26 43
e 26 44
e 26 45
e 26 46
e 26 48
e 26 49
e 26 50
e 26 51
e 26 52
e 26 53
e 26 70
e 26 91
e 26 95
e 26 96
e 27 34
e 27 35
e 27 36
e 27 37
e 27 38
e 27 39
e 27 40
e 27 41
e 27 42
e 27 43
e 27 44
e 27 45
e 27 46
e 27 47
e 27 48
e 27 49
e 27 50
e 27 51
e 27 53
e 27 54
e 27 91
e 27 95
e 28 34
e 28 35
e 28 36
e 28 37
e 28 38
e 28 39
e 28 40
e 28 41
e 28 42
e 28 43
e 28 44
e 28 46
e 28 47
e 28 48
e 28 49
e 28 50
e 28 51
e 28 52
e 28 56
e 28 59
e 28 86
e 28 91
e 28 95
e 28 100
e 29 34
e 29 35
e 29 36
e 29 37
e 29 38
e 29 39
e 29 40
e 29 41
e 29 42
e 29 43
e 29 44
e 29 45
e 29 47
e 29 48
e 29 49
e 29 50
e 29 51
e 29 66
e 29 70
e 29 78
e 29 91
e 29 95
e 30 34
e 30 35
e 30 36
e 30 37
e 30 38
e 30 39
e 30 40
e 30 41
e 30 42
e 30 43
e 30 44
e 30 45
e 30 46
e 30 47
e 30 48
e 30 49
e 30 50
e 30 53
e 30 54
e 30 55
e 30 60
e 30 79
e 30 95
e 31 34
e 31 35
e 31 36
e 31 37
e 31 38
e 31 39
e 31 40
e 31 41
e 31 42
e 31 43
e 31 44
e 31 45
e 31 46
e 31 47
e 31 48
e 31 49
e 31 50
e 31 51
e 31 59
e 31 94
e 31 95
e 32 34
e 32 35
e 32 36
e 32 37
e 32 38
e 32 39
e 32 40
e 32 47
e 32 53
e 32 54
e 32 55
e 32 58
e 32 69
e 32 80
e 32 95
e 32 96
e 33 34
e 33 35
e 33 36
e 33 37
e 33 38
e 33 39
e 33 40
e 33 43
e 33 44
e 33 45
e 33 46
e 33 47
e 33 48
e 33 49
e 33 50
e 33 51
e 33 55
e 33 60
e 33 61
e 33 62
e 33 63
e 33 64
e 33 65
e 33 66
e 33 67
e 33 69
e 33 70
e 33 71
e 33 72
e 33 73
e 33 76
e 33 77
e 33 78
e 33 79
e 33 80
e 33 81
e 33 84
e 33 85
e 33 86
e 33 95
e 33 97
e 34 35
e 34 36
e 34 37
e 34 38
e 34 39
e 34 40
e 34 41
e 34 42
e 34 43
e 34 95
e 35 42
e 35 43
e 35 95
e 36 42
e 36 43
e 36 95
e 37 42
e 37 43
e 37 95
e 38 42
e 38 43
e 38 91
e 38 95
e 39 42
e 39 43
e 39 95
e 40 42
e 40 43
e 41 42
e 41 43
e 41 94
e 41 95
e 42 72
e 42 73
e 42 74
e 42 75
e 42 76
e 42 77
e 42 78
e 42 79
e 42 80
e 42 81
e 43 72
e 43 73
e 43 74
e 43 75
e 43 76
e 43 77
e 43 78
e 43 79
e 43 80
e 43 81
e 44 72
e 44 73
e 44 74
e 44 75
e 44 76
e 44 77
e 44 78
e 44 79
e 44 80
e 44 81
e 45 72
e 45 73
e 45 74
e 45 75
e 45 76
e 45 77
e 45 78
e 45 79
e 45 80
e 45 81
e 45 91
e 46 72
e 46 73
e 46 74
e 46 75
e 46 76
e 46 77
e 46 78
e 46 79
e 46 80
e 46 81
e 47 69
e 47 72
e 47 73
e 47 74
e 47 75
e 47 76
e 47 77
e 47 78
e 47 79
e 47 80
e 47 81
e 48 72
e 48 73
e 48 74
e 48 75
e 48 76
e 48 77
e 48 78
e 48 79
e 48 80
e 48 81
e 49 72
e 49 73
e 49 74
e 49 75
e 49 76
e 49 77
e 49 78
e 49 79
e 49 80
e 49 81
e 50 72
e 50 73
e 50 74
e 50 75
e 50 76
e 50 77
e 50 78
e 50 79
e 50 80
e 50 81
e 51 72
e 51 73
e 51 74
e 51 75
e 51 76
e 51 77
e 51 78
e 51 79
e 51 80
e 51 81
e 52 72
e 52 73
e 52 74
e 52 75
e 52 76
e 52 77
e 52 78
e 52 79
e 52 80
e 52 81
e 53 72
e 53 73
e 53 74
e 53 75
e 53 76
e 53 77
e 53 78
e 53 79
e 53 80
e 53 81
e 54 82
e 54 83
e 54 84
e 54 85
e 54 86
e 54 87
e 54 88
e 54 89
e 54 91
e 54 92
e 54 93
e 54 94
e 54 95
e 54 96
e 54 97
e 54 98
e 54 99
e 54 100
e 55 82
e 55 83
e 55 84
e 55 85
e 55 86
e 55 87
e 55 88
e 55 89
e 55 91
e 55 92
e 55 93
e 55 94
e 55 95
e 55 96
e 55 97
e 55 98
e 55 100
e 56 82
e 56 83
e 56 84
e 56 85
e 56 86
e 56 87
e 56 88
e 56 89
e 56 90
e 56 91
e 56 92
e 56 93
e 56 94
e 56 95
e 56 96
e 56 97
e 56 98
e 56 99
e 56 100
e 57 82
e 57 84
e 57 85
e 57 86
e 57 87
e 57 88
e 57 89
e 57 90
e 57 91
e 57 92
e 57 93
e 57 94
e 57 95
e 57 96
e 57 97
e 57 98
e 57 99
e 57 100
e 58 82
e 58 83
e 58 84
e 58 85
e 58 86
e 58 87
e 58 88
e 58 89
e 58 90
e 58 91
e 58 92
e 58 93
e 58 94
e 58 95
e 58 96
e 58 97
e 58 98
e 58 99
e 58 100
e 59 82
e 59 83
e 59 84
e 59 85
e 59 86
e 59 87
e 59 88
e 59 89
e 59 90
e 59 91
e 59 92
e 59 93
e 59 95
e 59 96
e 59 97
e 59 98
e 59 99
e 59 100
e 60 82
e 60 83
e 60 84
e 60 85
e 60 86
e 60 87
e 60 88
e 60 89
e 60 90
e 60 91
e 60 92
e 60 93
e 60 94
e 60 95
e 60 96
e 60 97
e 60 98
e 60 99
e 60 100
e 61 82
e 61 83
e 61 84
e 61 85
e 61 86
e 61 87
e 61 88
e 61 89
e 61 90
e 61 91
e 61 92
e 61 93
e 61 94
e 61 95
e 61 96
e 61 97
e 61 98
e 61 99
e 61 100
e 62 82
e 62 83
e 62 84
e 62 85
e 62 87
e 62 88
e 62 89
e 62 90
e 62 91
e 62 92
e 62 93
e 62 94
e 62 95
e 62 96
e 62 97
e 62 98
e 62 99
e 62 100
e 63 82
e 63 83
e 63 84
e 63 85
e 63 86
e 63 87
e 63 88
e 63 89
e 63 90
e 63 91
e 63 92
e 63 93
e 63 94
e 63 96
e 63 97
e 63 98
e 63 99
e 63 100
e 64 82
e 64 83
e 64 84
e 64 85
e 64 86
e 64 87
e 64 88
e 64 89
e 64 90
e 64 91
e 64 92
e 64 93
e 64 94
e 64 95
e 64 96
e 64 97
e 64 98
e 64 99
e 64 100
e 65 82
e 65 83
e 65 84
e 65 85
e 65 86
e 65 87
e 65 88
e 65 90
e 65 91
e 65 92
e 65 93
e 65 94
e 65 95
e 65 96
e 65 97
e 65 98
e 65 99
e 65 100
e 66 82
e 66 83
e 66 84
e 66 85
e 66 86
e 66 87
e 66 88
e 66 90
e 66 91
e 66 92
e 66 93
e 66 94
e 66 95
e 66 96
e 66 97
e 66 98
e 66 99
e 66 100
e 67 82
e 67 83
e 67 84
e 67 85
e 67 86
e 67 87
e 67 88
e 67 89
e 67 90
e 67 91
e 67 92
e 67 93
e 67 94
e 67 95
e 67 96
e 67 97
e 67 98
e 67 99
e 67 100
e 68 82
e 68 83
e 68 84
e 68 85
e 68 86
e 68 87
e 68 88
e 68 89
e 68 90
e 68 91
e 68 92
e 68 93
e 68 94
e 68 95
e 68 96
e 68 98
e 68 99
e 68 100
e 69 82
e 69 83
e 69 84
e 69 85
e 69 86
e 69 87
e 69 88
e 69 89
e 69 90
e 69 91
e 69 92
e 69 93
e 69 94
e 69 95
e 69 96
e 69 97
e 69 98
e 69 99
e 69 100
e 70 82
e 70 83
e 70 84
e 70 85
e 70 86
e 70 87
e 70 88
e 70 90
e 70 91
e 70 92
e 70 93
e 70 94
e 70 95
e 70 96
e 70 97
e 70 98
e 70 99
e 70 100
e 71 82
e 71 83
e 71 84
e 71 85
e 71 86
e 71 87
e 71 88
e 71 89
e 71 90
e 71 91
e 71 92
e 71 93
e 71 94
e 71 95
e 71 96
e 71 97
e 71 98
e 71 99
e 71 100
e 72 79
e 72 80
e 72 81
e 72 83
e 72 84
e 72 85
e 72 86
e 72 87
e 72 88
e 72 89
e 72 90
e 72 91
e 72 92
e 72 93
e 72 94
e 72 95
e 72 96
e 72 97
e 72 98
e 72 99
e 72 100
e 73 78
e 73 82
e 73 83
e 73 84
e 73 85
e 73 86
e 73 87
e 73 88
e 73 89
e 73 90
e 73 91
e 73 92
e 73 93
e 73 94
e 73 95
e 73 96
e 73 97
e 73 98
e 73 99
e 73 100
e 74 80
e 74 82
e 74 83
e 74 84
e 74 85
e 74 86
e 74 87
e 74 88
e 74 89
e 74 90
e 74 91
e 74 92
e 74 93
e 74 94
e 74 95
e 74 96
e 74 97
e 74 98
e 74 99
e 74 100
e 75 80
e 75 82
e 75 83
e 75 84
e 75 85
e 75 86
e 75 87
e 75 88
e 75 89
e 75 90
e 75 91
e 75 92
e 75 93
e 75 94
e 75 95
e 75 96
e 75 98
e 75 99
e 75 100
e 76 82
e 76 83
e 76 84
e 76 85
e 76 86
e 76 87
e 76 88
e 76 89
e 76 90
e 76 91
e 76 92
e 76 93
e 76 94
e 76 95
e 76 96
e 76 97
e 76 98
e 76 99
e 76 100
e 77 82
e 77 83
e 77 84
e 77 85
e 77 86
e 77 87
e 77 88
e 77 89
e 77 90
e 77 91
e 77 92
e 77 93
e 77 94
e 77 95
e 77 96
e 77 97
e 77 98
e 77 99
e 77 100
e 78 81
e 78 82
e 78 83
e 78 84
e 78 85
e 78 86
e 78 87
e 78 88
e 78 89
e 78 90
e 78 91
e 78 92
e 78 93
e 78 94
e 78 95
e 78 96
e 78 97
e 78 98
e 78 99
e 78 100
e 79 82
e 79 83
e 79 84
e 79 85
e 79 86
e 79 87
e 79 88
e 79 89
e 79 90
e 79 91
e 79 92
e 79 93
e 79 94
e 79 95
e 79 96
e 79 97
e 79 98
e 79 99
e 79 100
e 80 82
e 80 83
e 80 84
e 80 85
e 80 86
e 80 87
e 80 88
e 80 89
e 80 90
e 80 91
e 80 92
e 80 93
e 80 94
e 80 95
e 80 96
e 80 97
e 80 98
e 80 99
e 80 100
e 81 82
e 81 83
e 81 84
e 81 85
e 81 86
e 81 87
e 81 88
e 81 89
e 81 90
e 81 91
e 81 92
e 81 93
e 81 94
e 81 95
e 81 96
e 81 97
e 81 98
e 81 99
e 81 100
e 82 92
e 82 93
e 82 94
e 82 95
e 82 96
e 82 97
e 82 98
e 82 100
e 83 92
e 83 93
e 83 94
e 83 95
e 83 96
e 83 97
e 83 98
e 83 99
e 83 100
e 84 92
e 84 93
e 84 94
e 84 95
e 84 96
e 84 97
e 84 98
e 84 99
e 84 100
e 85 92
e 85 93
e 85 95
e 85 96
e 85 97
e 85 98
e 85 99
e 85 100
e 86 94
e 86 97
e 86 98
e 86 99
e 86 100
e 87 92
e 87 93
e 87 94
e 87 95
e 87 96
e 87 97
e 87 98
e 87 99
e 87 100
e 88 92
e 88 93
e 88 94
e 88 96
e 88 97
e 88 98
e 88 99
e 88 100
e 89 92
e 89 93
e 89 94
e 89 95
e 89 96
e 89 97
e 89 98
e 89 99
e 89 100
e 90 92
e 90 93
e 90 94
e 90 95
e 90 96
e 90 97
e 90 98
e 90 99
e 90 100
e 91 92
e 91 93
e 91 94
e 91 95
e 91 96
e 91 98
e 91 99
e 91 100
e 92 97
e 92 98
e 92 99
e 92 100
e 93 97
e 93 98
e 93 99
e 93 100
e 94 97
e 94 98
e 94 99
e 94 100
e 95 97
e 95 99
e 95 100
e 96 97
e 96 98
e 96 99
e 97 98
e 97 99
e 97 100
